(set-logic SLIA)
(constraint (= (f "A bird in the hand is worth 2 in the bush.") true))
(constraint (= (f "A bird in the hand is worth two in the bush.") false))
(constraint (= (f "The 15 shortcuts you simply must know") true))
(check-synth)
(synth-fun f ((_arg_0 String)) Bool ((Start Bool (ntBool)) (ntString String ((Str A) (str.++ ntString A))) (A String ((Str ConstString) (SubStr X P P))) (P Int ((Int ntInt) (Pos X Pattern ntInt Direction))) (Pattern String ((Str ConstString) "ProperCase" "CAPS" "lowercase" "Digits" "Alphabets" "Alphanumeric" "WhiteSpace" "ProperCaseWSpaces" "CAPSWSpaces" "lowercaseSpaces" "AlphabetsWSpaces")) (X String (_arg_0)) (ConstString String (_arg_0 "" " " "1" "2" "3" "4" "5")) (Direction Int (0 1)) (ntInt Int (-5 -4 -3 -2 -1 0 1 2 3 4 5))))
